Solver command line: ['C:\\Users\\PC\\AppData\\Local\\Programs\\Python\\Python38-32\\Scripts\\cbc.exe', '-printingOptions', 'all', '-import', 'C:\\Users\\PC\\AppData\\Local\\Temp\\tmpaeert8jx.pyomo.lp', '-stat=1', '-solve', '-solu', 'C:\\Users\\PC\\AppData\\Local\\Temp\\tmpaeert8jx.pyomo.soln']

Welcome to the CBC MILP Solver 
Version: 2.10.3 
Build Date: Dec 15 2019 

command line - C:\Users\PC\AppData\Local\Programs\Python\Python38-32\Scripts\cbc.exe -printingOptions all -import C:\Users\PC\AppData\Local\Temp\tmpaeert8jx.pyomo.lp -stat=1 -solve -solu C:\Users\PC\AppData\Local\Temp\tmpaeert8jx.pyomo.soln (default strategy 1)
Option for printingOptions changed from normal to all
Presolve 2995 (-3096) rows, 1596 (-97) columns and 7576 (-3280) elements
Statistics for presolved model
Original problem has 132 integers (132 of which binary)
Presolved problem has 48 integers (48 of which binary)
==== 1464 zero objective 7 different
1464 variables have objective of 0
12 variables have objective of 70000
24 variables have objective of 80530
24 variables have objective of 100000
24 variables have objective of 195241
24 variables have objective of 2e+06
24 variables have objective of 7.5e+07
==== absolute objective values 7 different
1464 variables have objective of 0
12 variables have objective of 70000
24 variables have objective of 80530
24 variables have objective of 100000
24 variables have objective of 195241
24 variables have objective of 2e+06
24 variables have objective of 7.5e+07
==== for integers 24 zero objective 2 different
24 variables have objective of 0
24 variables have objective of 7.5e+07
==== for integers absolute objective values 2 different
24 variables have objective of 0
24 variables have objective of 7.5e+07
===== end objective counts


Problem has 2995 rows, 1596 columns (132 with objective) and 7576 elements
There are 84 singletons with objective 
Column breakdown:
48 of type 0.0->inf, 1500 of type 0.0->up, 0 of type lo->inf, 
0 of type lo->up, 0 of type free, 0 of type fixed, 
0 of type -inf->0.0, 0 of type -inf->up, 48 of type 0.0->1.0 
Row breakdown:
24 of type E 0.0, 0 of type E 1.0, 0 of type E -1.0, 
24 of type E other, 0 of type G 0.0, 0 of type G 1.0, 
0 of type G other, 69 of type L 0.0, 1 of type L 1.0, 
2877 of type L other, 0 of type Range 0.0->1.0, 0 of type Range other, 
0 of type Free 
Continuous objective value is 4.36319e+09 - 0.07 seconds
Cgl0003I 3 fixed, 0 tightened bounds, 2893 strengthened rows, 0 substitutions
Cgl0003I 0 fixed, 0 tightened bounds, 127 strengthened rows, 0 substitutions
Cgl0003I 0 fixed, 0 tightened bounds, 118 strengthened rows, 0 substitutions
Cgl0003I 0 fixed, 0 tightened bounds, 118 strengthened rows, 0 substitutions
Cgl0003I 0 fixed, 0 tightened bounds, 118 strengthened rows, 0 substitutions
Cgl0003I 0 fixed, 0 tightened bounds, 118 strengthened rows, 0 substitutions
Cgl0003I 0 fixed, 0 tightened bounds, 118 strengthened rows, 0 substitutions
Cgl0003I 0 fixed, 0 tightened bounds, 118 strengthened rows, 0 substitutions
Cgl0003I 0 fixed, 0 tightened bounds, 118 strengthened rows, 0 substitutions
Cgl0003I 0 fixed, 0 tightened bounds, 118 strengthened rows, 0 substitutions
Cgl0004I processed model has 2952 rows, 1569 columns (45 integer (45 of which binary)) and 12820 elements
Cbc0038I Initial state - 0 integers unsatisfied sum - 2.66454e-15
Cbc0038I Solution found of 4.39474e+09
Cbc0038I Relaxing continuous gives 4.39474e+09
Cbc0038I Before mini branch and bound, 45 integers at bound fixed and 303 continuous
Cbc0038I Mini branch and bound did not improve solution (0.48 seconds)
Cbc0038I After 0.48 seconds - Feasibility pump exiting with objective of 4.39474e+09 - took 0.01 seconds
Cbc0012I Integer solution of 4.394737e+09 found by feasibility pump after 0 iterations and 0 nodes (0.53 seconds)
Cbc0001I Search completed - best objective 4394737042.682205, took 0 iterations and 0 nodes (0.54 seconds)
Cbc0035I Maximum depth 0, 0 variables fixed on reduced cost
Cuts at root node changed objective from 4.39474e+09 to 4.39474e+09
Probing was tried 0 times and created 0 cuts of which 0 were active after adding rounds of cuts (0.000 seconds)
Gomory was tried 0 times and created 0 cuts of which 0 were active after adding rounds of cuts (0.000 seconds)
Knapsack was tried 0 times and created 0 cuts of which 0 were active after adding rounds of cuts (0.000 seconds)
Clique was tried 0 times and created 0 cuts of which 0 were active after adding rounds of cuts (0.000 seconds)
MixedIntegerRounding2 was tried 0 times and created 0 cuts of which 0 were active after adding rounds of cuts (0.000 seconds)
FlowCover was tried 0 times and created 0 cuts of which 0 were active after adding rounds of cuts (0.000 seconds)
TwoMirCuts was tried 0 times and created 0 cuts of which 0 were active after adding rounds of cuts (0.000 seconds)
ZeroHalf was tried 0 times and created 0 cuts of which 0 were active after adding rounds of cuts (0.000 seconds)

Result - Optimal solution found

Objective value:                4394737042.68220520
Enumerated nodes:               0
Total iterations:               0
Time (CPU seconds):             0.81
Time (Wallclock seconds):       0.81

Total time (CPU seconds):       0.88   (Wallclock seconds):       0.88


